    1000
     123
     800         1
     798         1
     797         1
     791         1
     790         1
     782         1
     764         1
     755         1
     751         1
     747         1
     737         1
     736         1
     721         1
     702         1
     691         1
     684         1
     682         1
     679         1
     668         1
     667         1
     665         1
     661         1
     645         1
     635         1
     629         1
     627         1
     623         1
     622         1
     620         1
     614         1
     602         1
     597         1
     595         1
     589         1
     579         1
     577         1
     575         1
     571         1
     557         1
     556         1
     518         1
     517         2
     514         1
     513         1
     507         1
     499         1
     488         2
     476         1
     474         1
     470         1
     466         1
     450         1
     445         1
     441         1
     436         1
     418         1
     414         1
     412         1
     410         1
     407         1
     401         1
     400         1
     395         1
     388         1
     382         1
     379         1
     370         1
     348         1
     347         1
     343         1
     342         1
     327         1
     326         2
     313         1
     312         1
     310         1
     306         1
     296         1
     288         1
     286         2
     281         1
     272         1
     270         1
     259         1
     238         2
     234         1
     232         1
     220         1
     219         1
     214         1
     213         1
     212         1
     199         1
     192         2
     184         1
     178         1
     170         1
     167         1
     161         1
     150         1
     137         1
     134         1
     106         1
     105         1
     102         1
      97         1
      96         1
      91         1
      90         1
      74         1
      69         1
      61         1
      58         2
      51         1
      46         1
      36         1
      34         1
      31         1
      25         1
      21         1
      20         1
      19         1
      18         1
